;; sequence(s): A4990
;; terms: 1 ~3 ~9 ~45 ~270 ~1782 ~12474 ~90882 ~681615 ~5225715 ~40760577 ~322379109 ~2579032872 ~20830650120 ~169621008120 ~1390892266584 ~11474861199318 ~95173848770814 ~793115406423450 ~6637123664280450
;; small program: loop((loop((1 + 2) * (2 - x), 2, y) * x) div y, x, 1)
;; fast program: loop((((2 * ((y - 2) * x)) div y) + x) * (1 + 2), x, 1)
(set-logic UFNIA)
(define-fun divf ((a Int) (b Int)) Int (ite (< 0 b) (div a b) (div (- a) (- b))))
(declare-fun f1 (Int) Int)
(declare-fun g1 () Int)
(declare-fun h1 (Int Int) Int)
(declare-fun u1 (Int Int) Int)
(declare-fun v1 (Int Int) Int)
(declare-fun f0 (Int Int) Int)
(declare-fun g0 (Int) Int)
(declare-fun h0 () Int)
(declare-fun u0 (Int Int) Int)
(declare-fun v0 (Int) Int)
(declare-fun small (Int) Int)
(declare-fun f2 (Int Int) Int)
(declare-fun g2 (Int) Int)
(declare-fun h2 () Int)
(declare-fun u2 (Int Int) Int)
(declare-fun v2 (Int) Int)
(declare-fun fast (Int) Int)
(assert (forall ((x Int)) (= (f1 x) (* (+ 1 2) (- 2 x)))))
(assert (= g1 2))
(assert (forall ((x Int) (y Int)) (= (h1 x y) y)))
(assert (forall ((x Int) (y Int)) (= (u1 x y) (ite (<= x 0) y (f1 (u1 (- x 1) y))))))
(assert (forall ((x Int) (y Int)) (= (v1 x y) (u1 g1 (h1 x y)))))
(assert (forall ((x Int) (y Int)) (= (f0 x y) (divf (* (v1 x y) x) y))))
(assert (forall ((x Int)) (= (g0 x) x)))
(assert (= h0 1))
(assert (forall ((x Int) (y Int)) (= (u0 x y) (ite (<= x 0) y (f0 (u0 (- x 1) y) x)))))
(assert (forall ((x Int)) (= (v0 x) (u0 (g0 x) h0))))
(assert (forall ((x Int)) (= (small x) (v0 x))))
(assert (forall ((x Int) (y Int)) (= (f2 x y) (* (+ (divf (* 2 (* (- y 2) x)) y) x) (+ 1 2)))))
(assert (forall ((x Int)) (= (g2 x) x)))
(assert (= h2 1))
(assert (forall ((x Int) (y Int)) (= (u2 x y) (ite (<= x 0) y (f2 (u2 (- x 1) y) x)))))
(assert (forall ((x Int)) (= (v2 x) (u2 (g2 x) h2))))
(assert (forall ((x Int)) (= (fast x) (v2 x))))
(assert (exists ((c Int)) (and (>= c 0) (not (= (small c) (fast c))))))
(check-sat)
